//Dat File

outFile="MPVSBPP_SET1_IT200_ITV2_NT2_TS3_WT1_VT1_REP1";
m=200;
o=126;
p=3;
numVTypes=3;

demand = [5, 2, 7, 2, 2, 1, 5, 7, 8, 2, 5, 4, 2, 4, 3, 2, 5, 9, 3, 11, 2, 2, 4, 9, 9, 8, 11, 8, 7, 5, 1, 10, 5, 2, 9, 1, 5, 8, 3, 2, 5, 5, 11, 8, 10, 11, 11, 10, 9, 2, 6, 1, 11, 2, 6, 11, 8, 4, 5, 3, 2, 1, 3, 9, 7, 7, 6, 10, 9, 3, 7, 11, 2, 9, 6, 8, 5, 8, 6, 11, 9, 11, 3, 1, 7, 11, 10, 2, 4, 4, 4, 1, 9, 10, 6, 10, 11, 10, 7, 3, 15, 15, 16, 13, 16, 17, 17, 17, 13, 19, 17, 18, 19, 14, 15, 17, 17, 15, 14, 15, 13, 16, 12, 18, 19, 16, 15, 16, 15, 12, 15, 15, 18, 17, 14, 13, 16, 13, 15, 17, 12, 15, 17, 18, 19, 12, 19, 18, 19, 19, 15, 16, 18, 19, 13, 13, 19, 18, 12, 18, 12, 19, 15, 12, 14, 16, 16, 15, 13, 19, 18, 13, 18, 15, 14, 19, 16, 16, 15, 16, 17, 18, 13, 12, 15, 16, 12, 18, 15, 17, 14, 14, 17, 14, 13, 12, 14, 15, 12, 12];
Depot_Cap = [30000, 30000, 30000];
Tarif = [10, 3, 7];
VeicVolume = [100, 150, 200];
VeicCost = [100, 120, 140];
VeicType = [1, 1, 1, 1, 1, 1, 1, 1, 1, 1, 1, 1, 1, 1, 1, 1, 1, 1, 1, 1, 1, 1, 1, 1, 1, 1, 1, 1, 1, 1, 1, 1, 1, 1, 1, 1, 1, 1, 1, 1, 1, 1, 2, 2, 2, 2, 2, 2, 2, 2, 2, 2, 2, 2, 2, 2, 2, 2, 2, 2, 2, 2, 2, 2, 2, 2, 2, 2, 2, 2, 2, 2, 2, 2, 2, 2, 2, 2, 2, 2, 2, 2, 2, 2, 3, 3, 3, 3, 3, 3, 3, 3, 3, 3, 3, 3, 3, 3, 3, 3, 3, 3, 3, 3, 3, 3, 3, 3, 3, 3, 3, 3, 3, 3, 3, 3, 3, 3, 3, 3, 3, 3, 3, 3, 3, 3];
Elect_vehicle = [[70, 100, 30], [70, 100, 30], [70, 100, 30], [70, 100, 30], [70, 100, 30], [70, 100, 30], [70, 100, 30], [70, 100, 30], [70, 100, 30], [70, 100, 30], [70, 100, 30], [70, 100, 30], [70, 100, 30], [70, 100, 30], [70, 100, 30], [70, 100, 30], [70, 100, 30], [70, 100, 30], [70, 100, 30], [70, 100, 30], [70, 100, 30], [70, 100, 30], [70, 100, 30], [70, 100, 30], [70, 100, 30], [70, 100, 30], [70, 100, 30], [70, 100, 30], [70, 100, 30], [70, 100, 30], [70, 100, 30], [70, 100, 30], [70, 100, 30], [70, 100, 30], [70, 100, 30], [70, 100, 30], [70, 100, 30], [70, 100, 30], [70, 100, 30], [70, 100, 30], [70, 100, 30], [70, 100, 30], [80, 120, 30], [80, 120, 30], [80, 120, 30], [80, 120, 30], [80, 120, 30], [80, 120, 30], [80, 120, 30], [80, 120, 30], [80, 120, 30], [80, 120, 30], [80, 120, 30], [80, 120, 30], [80, 120, 30], [80, 120, 30], [80, 120, 30], [80, 120, 30], [80, 120, 30], [80, 120, 30], [80, 120, 30], [80, 120, 30], [80, 120, 30], [80, 120, 30], [80, 120, 30], [80, 120, 30], [80, 120, 30], [80, 120, 30], [80, 120, 30], [80, 120, 30], [80, 120, 30], [80, 120, 30], [80, 120, 30], [80, 120, 30], [80, 120, 30], [80, 120, 30], [80, 120, 30], [80, 120, 30], [80, 120, 30], [80, 120, 30], [80, 120, 30], [80, 120, 30], [80, 120, 30], [80, 120, 30], [90, 140, 40], [90, 140, 40], [90, 140, 40], [90, 140, 40], [90, 140, 40], [90, 140, 40], [90, 140, 40], [90, 140, 40], [90, 140, 40], [90, 140, 40], [90, 140, 40], [90, 140, 40], [90, 140, 40], [90, 140, 40], [90, 140, 40], [90, 140, 40], [90, 140, 40], [90, 140, 40], [90, 140, 40], [90, 140, 40], [90, 140, 40], [90, 140, 40], [90, 140, 40], [90, 140, 40], [90, 140, 40], [90, 140, 40], [90, 140, 40], [90, 140, 40], [90, 140, 40], [90, 140, 40], [90, 140, 40], [90, 140, 40], [90, 140, 40], [90, 140, 40], [90, 140, 40], [90, 140, 40], [90, 140, 40], [90, 140, 40], [90, 140, 40], [90, 140, 40], [90, 140, 40], [90, 140, 40]];